p cnf 115 356
-26 -1 0
-26 2 0
-26 5 0
-27 1 0
-27 -2 0
-27 5 0
-28 1 0
-28 2 0
-28 -5 0
26 27 28 0
-29 -2 0
-29 3 0
-29 6 0
-30 2 0
-30 -3 0
-30 6 0
-31 2 0
-31 3 0
-31 -6 0
29 30 31 0
-32 -3 0
-32 4 0
-32 7 0
-33 3 0
-33 -4 0
-33 7 0
-34 3 0
-34 4 0
-34 -7 0
32 33 34 0
-35 -1 0
-35 -5 0
-35 -8 0
35 0
-36 -2 0
-36 -5 0
-36 6 0
-36 9 0
-37 -2 0
-37 5 0
-37 -6 0
-37 9 0
-38 -2 0
-38 5 0
-38 6 0
-38 -9 0
-39 2 0
-39 -5 0
-39 -6 0
-39 9 0
-40 2 0
-40 -5 0
-40 6 0
-40 -9 0
-41 2 0
-41 5 0
-41 -6 0
-41 -9 0
36 37 38 39 40 41 0
-42 -3 0
-42 -6 0
-42 7 0
-42 10 0
-43 -3 0
-43 6 0
-43 -7 0
-43 10 0
-44 -3 0
-44 6 0
-44 7 0
-44 -10 0
-45 3 0
-45 -6 0
-45 -7 0
-45 10 0
-46 3 0
-46 -6 0
-46 7 0
-46 -10 0
-47 3 0
-47 6 0
-47 -7 0
-47 -10 0
42 43 44 45 46 47 0
-48 -4 0
-48 -7 0
-48 -11 0
48 0
-49 -5 0
-49 -8 0
-49 9 0
-49 12 0
-50 -5 0
-50 8 0
-50 -9 0
-50 12 0
-51 -5 0
-51 8 0
-51 9 0
-51 -12 0
-52 5 0
-52 -8 0
-52 -9 0
-52 12 0
-53 5 0
-53 -8 0
-53 9 0
-53 -12 0
-54 5 0
-54 8 0
-54 -9 0
-54 -12 0
49 50 51 52 53 54 0
-55 -6 0
-55 -9 0
-55 10 0
-55 13 0
-56 -6 0
-56 9 0
-56 -10 0
-56 13 0
-57 -6 0
-57 9 0
-57 10 0
-57 -13 0
-58 6 0
-58 -9 0
-58 -10 0
-58 13 0
-59 6 0
-59 -9 0
-59 10 0
-59 -13 0
-60 6 0
-60 9 0
-60 -10 0
-60 -13 0
55 56 57 58 59 60 0
-61 -7 0
-61 -10 0
-61 11 0
-61 14 0
-62 -7 0
-62 10 0
-62 -11 0
-62 14 0
-63 -7 0
-63 10 0
-63 11 0
-63 -14 0
-64 7 0
-64 -10 0
-64 -11 0
-64 14 0
-65 7 0
-65 -10 0
-65 11 0
-65 -14 0
-66 7 0
-66 10 0
-66 -11 0
-66 -14 0
61 62 63 64 65 66 0
-67 -8 0
-67 12 0
-67 15 0
-68 8 0
-68 -12 0
-68 15 0
-69 8 0
-69 12 0
-69 -15 0
67 68 69 0
-70 -9 0
-70 -12 0
-70 -13 0
-70 -16 0
70 0
-71 -10 0
-71 -13 0
-71 -14 0
-71 -17 0
71 0
-72 -11 0
-72 14 0
-72 18 0
-73 11 0
-73 -14 0
-73 18 0
-74 11 0
-74 14 0
-74 -18 0
72 73 74 0
-75 -12 0
-75 -15 0
-75 16 0
-75 19 0
-76 -12 0
-76 15 0
-76 -16 0
-76 19 0
-77 -12 0
-77 15 0
-77 16 0
-77 -19 0
-78 12 0
-78 -15 0
-78 -16 0
-78 19 0
-79 12 0
-79 -15 0
-79 16 0
-79 -19 0
-80 12 0
-80 15 0
-80 -16 0
-80 -19 0
75 76 77 78 79 80 0
-81 -13 0
-81 -16 0
-81 17 0
-81 20 0
-82 -13 0
-82 16 0
-82 -17 0
-82 20 0
-83 -13 0
-83 16 0
-83 17 0
-83 -20 0
-84 13 0
-84 -16 0
-84 -17 0
-84 20 0
-85 13 0
-85 -16 0
-85 17 0
-85 -20 0
-86 13 0
-86 16 0
-86 -17 0
-86 -20 0
81 82 83 84 85 86 0
-87 -14 0
-87 -17 0
-87 18 0
-87 21 0
-88 -14 0
-88 17 0
-88 -18 0
-88 21 0
-89 -14 0
-89 17 0
-89 18 0
-89 -21 0
-90 14 0
-90 -17 0
-90 -18 0
-90 21 0
-91 14 0
-91 -17 0
-91 18 0
-91 -21 0
-92 14 0
-92 17 0
-92 -18 0
-92 -21 0
87 88 89 90 91 92 0
-93 -15 0
-93 -19 0
-93 -22 0
93 0
-94 -16 0
-94 -19 0
-94 20 0
-94 23 0
-95 -16 0
-95 19 0
-95 -20 0
-95 23 0
-96 -16 0
-96 19 0
-96 20 0
-96 -23 0
-97 16 0
-97 -19 0
-97 -20 0
-97 23 0
-98 16 0
-98 -19 0
-98 20 0
-98 -23 0
-99 16 0
-99 19 0
-99 -20 0
-99 -23 0
94 95 96 97 98 99 0
-100 -17 0
-100 -20 0
-100 21 0
-100 24 0
-101 -17 0
-101 20 0
-101 -21 0
-101 24 0
-102 -17 0
-102 20 0
-102 21 0
-102 -24 0
-103 17 0
-103 -20 0
-103 -21 0
-103 24 0
-104 17 0
-104 -20 0
-104 21 0
-104 -24 0
-105 17 0
-105 20 0
-105 -21 0
-105 -24 0
100 101 102 103 104 105 0
-106 -18 0
-106 -21 0
-106 -25 0
106 0
-107 -19 0
-107 22 0
-107 23 0
-108 19 0
-108 -22 0
-108 23 0
-109 19 0
-109 22 0
-109 -23 0
107 108 109 0
-110 -20 0
-110 23 0
-110 24 0
-111 20 0
-111 -23 0
-111 24 0
-112 20 0
-112 23 0
-112 -24 0
110 111 112 0
-113 -21 0
-113 24 0
-113 25 0
-114 21 0
-114 -24 0
-114 25 0
-115 21 0
-115 24 0
-115 -25 0
113 114 115 0
